9,1 
0,1
0,1
0,1
1,2
0,3
0,3
0,3
0,3
1,1
0,1
0,1
0,2
2,2
0,2
0,2
0,3
3,3
0,4
8,1
0,1
0,2
9,2
7,2 
0,3 
0,3 
0,3
5,4
0,4
4,4 
3,2 
0,5 
0,5 
0,5 
8,6 
0,6
0,4 
0,4 
0,4 
0,7 
0,5 
3,5 
0,5
0,6 
0,6
0,4
2,4 
0,7 
0,7 
0,8 
0,5 
0,6
0,6
0,6
0,7
0,7 
0,7
7,8
4,8 
0,5
0,5
1,6
5,6
0,7
6,8
9,8
0,8
0,8 
1,8
0,9
0,9 
0,9
0,7
0,7
0,8
0,9
0,9
2,9
3,9
0,9
9,9